computational_data/real_data/solutions/iris_trial_001.sol
Optimal - objective value 6.00000000
      5 r_5                         1                       1
      7 r_7                         1                       1
     13 r_13                        1                       1
     26 b_0                         1                       1
     50 b_24                        1                       1
     51 b_25                        1                       1
