computational_data/real_data/logs/iris_trial_001.log
Welcome to the CBC MILP Solver 
Version: 2.10.12 
Build Date: Aug 20 2024 

command line - /opt/homebrew/bin/cbc computational_data/real_data/lp/iris_trial_001.lp seconds 10.0 solve solu computational_data/real_data/solutions/iris_trial_001.sol (default strategy 1)
seconds was changed from 1e+100 to 10
Continuous objective value is 5.02564 - 0.00 seconds
Cgl0003I 0 fixed, 0 tightened bounds, 255 strengthened rows, 4 substitutions
Cgl0003I 0 fixed, 0 tightened bounds, 232 strengthened rows, 0 substitutions
Cgl0003I 0 fixed, 0 tightened bounds, 227 strengthened rows, 0 substitutions
Cgl0003I 0 fixed, 0 tightened bounds, 222 strengthened rows, 0 substitutions
Cgl0003I 0 fixed, 0 tightened bounds, 217 strengthened rows, 0 substitutions
Cgl0003I 0 fixed, 0 tightened bounds, 208 strengthened rows, 0 substitutions
Cgl0003I 0 fixed, 0 tightened bounds, 202 strengthened rows, 0 substitutions
Cgl0003I 0 fixed, 0 tightened bounds, 185 strengthened rows, 0 substitutions
Cgl0003I 0 fixed, 0 tightened bounds, 72 strengthened rows, 0 substitutions
Cgl0004I processed model has 257 rows, 48 columns (48 integer (48 of which binary)) and 2565 elements
Cutoff increment increased from 1e-05 to 0.9999
Cbc0038I Initial state - 48 integers unsatisfied sum - 3.69231
Cbc0038I Pass   1: suminf.    3.69231 (48) obj. 5.69231 iterations 0
Cbc0038I Pass   2: suminf.    0.00000 (0) obj. 6 iterations 28
Cbc0038I Solution found of 6
Cbc0038I Before mini branch and bound, 0 integers at bound fixed and 0 continuous
Cbc0038I Mini branch and bound did not improve solution (0.02 seconds)
Cbc0038I After 0.02 seconds - Feasibility pump exiting with objective of 6 - took 0.00 seconds
Cbc0012I Integer solution of 6 found by feasibility pump after 0 iterations and 0 nodes (0.02 seconds)
Cbc0001I Search completed - best objective 6, took 0 iterations and 0 nodes (0.02 seconds)
Cbc0035I Maximum depth 0, 0 variables fixed on reduced cost
Cuts at root node changed objective from 5.69231 to 5.69231
Probing was tried 0 times and created 0 cuts of which 0 were active after adding rounds of cuts (0.000 seconds)
Gomory was tried 0 times and created 0 cuts of which 0 were active after adding rounds of cuts (0.000 seconds)
Knapsack was tried 0 times and created 0 cuts of which 0 were active after adding rounds of cuts (0.000 seconds)
Clique was tried 0 times and created 0 cuts of which 0 were active after adding rounds of cuts (0.000 seconds)
MixedIntegerRounding2 was tried 0 times and created 0 cuts of which 0 were active after adding rounds of cuts (0.000 seconds)
FlowCover was tried 0 times and created 0 cuts of which 0 were active after adding rounds of cuts (0.000 seconds)
TwoMirCuts was tried 0 times and created 0 cuts of which 0 were active after adding rounds of cuts (0.000 seconds)
ZeroHalf was tried 0 times and created 0 cuts of which 0 were active after adding rounds of cuts (0.000 seconds)

Result - Optimal solution found

Objective value:                6.00000000
Enumerated nodes:               0
Total iterations:               0
Time (CPU seconds):             0.02
Time (Wallclock seconds):       0.02

Total time (CPU seconds):       0.02   (Wallclock seconds):       0.02

